\* Source Pyomo model name=unknown *\

min 
objective:
+488.0 x(0_0)
+411.0 x(0_1)
+479.0 x(0_2)
+445.0 x(0_3)
+458.0 x(0_4)
+196.0 x(0_5)
+587.0 x(0_6)
+230.0 x(0_7)
+1280.0 x(1_0)
+745.0 x(1_1)
+116.0 x(1_2)
+779.0 x(1_3)
+394.0 x(1_4)
+782.0 x(1_5)
+1126.0 x(1_6)
+546.0 x(1_7)

s.t.

c_e_Assignment(0)_:
+1 x(0_0)
+1 x(1_0)
= 1

c_e_Assignment(1)_:
+1 x(0_1)
+1 x(1_1)
= 1

c_e_Assignment(2)_:
+1 x(0_2)
+1 x(1_2)
= 1

c_e_Assignment(3)_:
+1 x(0_3)
+1 x(1_3)
= 1

c_e_Assignment(4)_:
+1 x(0_4)
+1 x(1_4)
= 1

c_e_Assignment(5)_:
+1 x(0_5)
+1 x(1_5)
= 1

c_e_Assignment(6)_:
+1 x(0_6)
+1 x(1_6)
= 1

c_e_Assignment(7)_:
+1 x(0_7)
+1 x(1_7)
= 1

c_e_Demand(0_0)_:
+1 q(0_0_0)
+1 q(0_1_0)
= 26

c_e_Demand(0_1)_:
+1 q(0_0_1)
+1 q(0_1_1)
= 23

c_e_Demand(0_2)_:
+1 q(0_0_2)
+1 q(0_1_2)
= 29

c_e_Demand(0_3)_:
+1 q(0_0_3)
+1 q(0_1_3)
= 22

c_e_Demand(0_4)_:
+1 q(0_0_4)
+1 q(0_1_4)
= 18

c_e_Demand(0_5)_:
+1 q(0_0_5)
+1 q(0_1_5)
= 17

c_e_Demand(0_6)_:
+1 q(0_0_6)
+1 q(0_1_6)
= 18

c_e_Demand(0_7)_:
+1 q(0_0_7)
+1 q(0_1_7)
= 14

c_e_Demand(1_0)_:
+1 q(1_0_0)
+1 q(1_1_0)
= 25

c_e_Demand(1_1)_:
+1 q(1_0_1)
+1 q(1_1_1)
= 23

c_e_Demand(1_2)_:
+1 q(1_0_2)
+1 q(1_1_2)
= 28

c_e_Demand(1_3)_:
+1 q(1_0_3)
+1 q(1_1_3)
= 22

c_e_Demand(1_4)_:
+1 q(1_0_4)
+1 q(1_1_4)
= 18

c_e_Demand(1_5)_:
+1 q(1_0_5)
+1 q(1_1_5)
= 18

c_e_Demand(1_6)_:
+1 q(1_0_6)
+1 q(1_1_6)
= 18

c_e_Demand(1_7)_:
+1 q(1_0_7)
+1 q(1_1_7)
= 13

c_e_Demand(2_0)_:
+1 q(2_0_0)
+1 q(2_1_0)
= 26

c_e_Demand(2_1)_:
+1 q(2_0_1)
+1 q(2_1_1)
= 23

c_e_Demand(2_2)_:
+1 q(2_0_2)
+1 q(2_1_2)
= 28

c_e_Demand(2_3)_:
+1 q(2_0_3)
+1 q(2_1_3)
= 24

c_e_Demand(2_4)_:
+1 q(2_0_4)
+1 q(2_1_4)
= 18

c_e_Demand(2_5)_:
+1 q(2_0_5)
+1 q(2_1_5)
= 17

c_e_Demand(2_6)_:
+1 q(2_0_6)
+1 q(2_1_6)
= 18

c_e_Demand(2_7)_:
+1 q(2_0_7)
+1 q(2_1_7)
= 13

c_e_Demand(3_0)_:
+1 q(3_0_0)
+1 q(3_1_0)
= 26

c_e_Demand(3_1)_:
+1 q(3_0_1)
+1 q(3_1_1)
= 23

c_e_Demand(3_2)_:
+1 q(3_0_2)
+1 q(3_1_2)
= 27

c_e_Demand(3_3)_:
+1 q(3_0_3)
+1 q(3_1_3)
= 22

c_e_Demand(3_4)_:
+1 q(3_0_4)
+1 q(3_1_4)
= 18

c_e_Demand(3_5)_:
+1 q(3_0_5)
+1 q(3_1_5)
= 17

c_e_Demand(3_6)_:
+1 q(3_0_6)
+1 q(3_1_6)
= 17

c_e_Demand(3_7)_:
+1 q(3_0_7)
+1 q(3_1_7)
= 14

c_e_Demand(4_0)_:
+1 q(4_0_0)
+1 q(4_1_0)
= 25

c_e_Demand(4_1)_:
+1 q(4_0_1)
+1 q(4_1_1)
= 22

c_e_Demand(4_2)_:
+1 q(4_0_2)
+1 q(4_1_2)
= 28

c_e_Demand(4_3)_:
+1 q(4_0_3)
+1 q(4_1_3)
= 22

c_e_Demand(4_4)_:
+1 q(4_0_4)
+1 q(4_1_4)
= 19

c_e_Demand(4_5)_:
+1 q(4_0_5)
+1 q(4_1_5)
= 17

c_e_Demand(4_6)_:
+1 q(4_0_6)
+1 q(4_1_6)
= 18

c_e_Demand(4_7)_:
+1 q(4_0_7)
+1 q(4_1_7)
= 13

c_e_Demand(5_0)_:
+1 q(5_0_0)
+1 q(5_1_0)
= 26

c_e_Demand(5_1)_:
+1 q(5_0_1)
+1 q(5_1_1)
= 23

c_e_Demand(5_2)_:
+1 q(5_0_2)
+1 q(5_1_2)
= 29

c_e_Demand(5_3)_:
+1 q(5_0_3)
+1 q(5_1_3)
= 22

c_e_Demand(5_4)_:
+1 q(5_0_4)
+1 q(5_1_4)
= 18

c_e_Demand(5_5)_:
+1 q(5_0_5)
+1 q(5_1_5)
= 17

c_e_Demand(5_6)_:
+1 q(5_0_6)
+1 q(5_1_6)
= 18

c_e_Demand(5_7)_:
+1 q(5_0_7)
+1 q(5_1_7)
= 14

c_e_Demand(6_0)_:
+1 q(6_0_0)
+1 q(6_1_0)
= 26

c_e_Demand(6_1)_:
+1 q(6_0_1)
+1 q(6_1_1)
= 23

c_e_Demand(6_2)_:
+1 q(6_0_2)
+1 q(6_1_2)
= 28

c_e_Demand(6_3)_:
+1 q(6_0_3)
+1 q(6_1_3)
= 22

c_e_Demand(6_4)_:
+1 q(6_0_4)
+1 q(6_1_4)
= 18

c_e_Demand(6_5)_:
+1 q(6_0_5)
+1 q(6_1_5)
= 16

c_e_Demand(6_6)_:
+1 q(6_0_6)
+1 q(6_1_6)
= 18

c_e_Demand(6_7)_:
+1 q(6_0_7)
+1 q(6_1_7)
= 12

c_e_Demand(7_0)_:
+1 q(7_0_0)
+1 q(7_1_0)
= 26

c_e_Demand(7_1)_:
+1 q(7_0_1)
+1 q(7_1_1)
= 23

c_e_Demand(7_2)_:
+1 q(7_0_2)
+1 q(7_1_2)
= 27

c_e_Demand(7_3)_:
+1 q(7_0_3)
+1 q(7_1_3)
= 22

c_e_Demand(7_4)_:
+1 q(7_0_4)
+1 q(7_1_4)
= 18

c_e_Demand(7_5)_:
+1 q(7_0_5)
+1 q(7_1_5)
= 17

c_e_Demand(7_6)_:
+1 q(7_0_6)
+1 q(7_1_6)
= 17

c_e_Demand(7_7)_:
+1 q(7_0_7)
+1 q(7_1_7)
= 14

c_e_Demand(8_0)_:
+1 q(8_0_0)
+1 q(8_1_0)
= 26

c_e_Demand(8_1)_:
+1 q(8_0_1)
+1 q(8_1_1)
= 22

c_e_Demand(8_2)_:
+1 q(8_0_2)
+1 q(8_1_2)
= 28

c_e_Demand(8_3)_:
+1 q(8_0_3)
+1 q(8_1_3)
= 22

c_e_Demand(8_4)_:
+1 q(8_0_4)
+1 q(8_1_4)
= 18

c_e_Demand(8_5)_:
+1 q(8_0_5)
+1 q(8_1_5)
= 16

c_e_Demand(8_6)_:
+1 q(8_0_6)
+1 q(8_1_6)
= 17

c_e_Demand(8_7)_:
+1 q(8_0_7)
+1 q(8_1_7)
= 12

c_e_Demand(9_0)_:
+1 q(9_0_0)
+1 q(9_1_0)
= 27

c_e_Demand(9_1)_:
+1 q(9_0_1)
+1 q(9_1_1)
= 23

c_e_Demand(9_2)_:
+1 q(9_0_2)
+1 q(9_1_2)
= 28

c_e_Demand(9_3)_:
+1 q(9_0_3)
+1 q(9_1_3)
= 22

c_e_Demand(9_4)_:
+1 q(9_0_4)
+1 q(9_1_4)
= 18

c_e_Demand(9_5)_:
+1 q(9_0_5)
+1 q(9_1_5)
= 16

c_e_Demand(9_6)_:
+1 q(9_0_6)
+1 q(9_1_6)
= 17

c_e_Demand(9_7)_:
+1 q(9_0_7)
+1 q(9_1_7)
= 13

c_e_Demand(10_0)_:
+1 q(10_0_0)
+1 q(10_1_0)
= 27

c_e_Demand(10_1)_:
+1 q(10_0_1)
+1 q(10_1_1)
= 23

c_e_Demand(10_2)_:
+1 q(10_0_2)
+1 q(10_1_2)
= 28

c_e_Demand(10_3)_:
+1 q(10_0_3)
+1 q(10_1_3)
= 22

c_e_Demand(10_4)_:
+1 q(10_0_4)
+1 q(10_1_4)
= 18

c_e_Demand(10_5)_:
+1 q(10_0_5)
+1 q(10_1_5)
= 16

c_e_Demand(10_6)_:
+1 q(10_0_6)
+1 q(10_1_6)
= 17

c_e_Demand(10_7)_:
+1 q(10_0_7)
+1 q(10_1_7)
= 13

c_e_Demand(11_0)_:
+1 q(11_0_0)
+1 q(11_1_0)
= 26

c_e_Demand(11_1)_:
+1 q(11_0_1)
+1 q(11_1_1)
= 22

c_e_Demand(11_2)_:
+1 q(11_0_2)
+1 q(11_1_2)
= 28

c_e_Demand(11_3)_:
+1 q(11_0_3)
+1 q(11_1_3)
= 22

c_e_Demand(11_4)_:
+1 q(11_0_4)
+1 q(11_1_4)
= 18

c_e_Demand(11_5)_:
+1 q(11_0_5)
+1 q(11_1_5)
= 17

c_e_Demand(11_6)_:
+1 q(11_0_6)
+1 q(11_1_6)
= 18

c_e_Demand(11_7)_:
+1 q(11_0_7)
+1 q(11_1_7)
= 14

c_e_Demand(12_0)_:
+1 q(12_0_0)
+1 q(12_1_0)
= 25

c_e_Demand(12_1)_:
+1 q(12_0_1)
+1 q(12_1_1)
= 22

c_e_Demand(12_2)_:
+1 q(12_0_2)
+1 q(12_1_2)
= 27

c_e_Demand(12_3)_:
+1 q(12_0_3)
+1 q(12_1_3)
= 22

c_e_Demand(12_4)_:
+1 q(12_0_4)
+1 q(12_1_4)
= 18

c_e_Demand(12_5)_:
+1 q(12_0_5)
+1 q(12_1_5)
= 17

c_e_Demand(12_6)_:
+1 q(12_0_6)
+1 q(12_1_6)
= 18

c_e_Demand(12_7)_:
+1 q(12_0_7)
+1 q(12_1_7)
= 13

c_e_Demand(13_0)_:
+1 q(13_0_0)
+1 q(13_1_0)
= 25

c_e_Demand(13_1)_:
+1 q(13_0_1)
+1 q(13_1_1)
= 22

c_e_Demand(13_2)_:
+1 q(13_0_2)
+1 q(13_1_2)
= 27

c_e_Demand(13_3)_:
+1 q(13_0_3)
+1 q(13_1_3)
= 22

c_e_Demand(13_4)_:
+1 q(13_0_4)
+1 q(13_1_4)
= 18

c_e_Demand(13_5)_:
+1 q(13_0_5)
+1 q(13_1_5)
= 17

c_e_Demand(13_6)_:
+1 q(13_0_6)
+1 q(13_1_6)
= 18

c_e_Demand(13_7)_:
+1 q(13_0_7)
+1 q(13_1_7)
= 13

c_e_Demand(14_0)_:
+1 q(14_0_0)
+1 q(14_1_0)
= 27

c_e_Demand(14_1)_:
+1 q(14_0_1)
+1 q(14_1_1)
= 23

c_e_Demand(14_2)_:
+1 q(14_0_2)
+1 q(14_1_2)
= 28

c_e_Demand(14_3)_:
+1 q(14_0_3)
+1 q(14_1_3)
= 22

c_e_Demand(14_4)_:
+1 q(14_0_4)
+1 q(14_1_4)
= 18

c_e_Demand(14_5)_:
+1 q(14_0_5)
+1 q(14_1_5)
= 16

c_e_Demand(14_6)_:
+1 q(14_0_6)
+1 q(14_1_6)
= 17

c_e_Demand(14_7)_:
+1 q(14_0_7)
+1 q(14_1_7)
= 13

c_u_Capacity(0_0)_:
+1 q(0_0_0)
+1 q(0_0_1)
+1 q(0_0_2)
+1 q(0_0_3)
+1 q(0_0_4)
+1 q(0_0_5)
+1 q(0_0_6)
+1 q(0_0_7)
<= 120

c_u_Capacity(0_1)_:
+1 q(0_1_0)
+1 q(0_1_1)
+1 q(0_1_2)
+1 q(0_1_3)
+1 q(0_1_4)
+1 q(0_1_5)
+1 q(0_1_6)
+1 q(0_1_7)
<= 1000

c_u_Capacity(1_0)_:
+1 q(1_0_0)
+1 q(1_0_1)
+1 q(1_0_2)
+1 q(1_0_3)
+1 q(1_0_4)
+1 q(1_0_5)
+1 q(1_0_6)
+1 q(1_0_7)
<= 120

c_u_Capacity(1_1)_:
+1 q(1_1_0)
+1 q(1_1_1)
+1 q(1_1_2)
+1 q(1_1_3)
+1 q(1_1_4)
+1 q(1_1_5)
+1 q(1_1_6)
+1 q(1_1_7)
<= 1000

c_u_Capacity(2_0)_:
+1 q(2_0_0)
+1 q(2_0_1)
+1 q(2_0_2)
+1 q(2_0_3)
+1 q(2_0_4)
+1 q(2_0_5)
+1 q(2_0_6)
+1 q(2_0_7)
<= 120

c_u_Capacity(2_1)_:
+1 q(2_1_0)
+1 q(2_1_1)
+1 q(2_1_2)
+1 q(2_1_3)
+1 q(2_1_4)
+1 q(2_1_5)
+1 q(2_1_6)
+1 q(2_1_7)
<= 1000

c_u_Capacity(3_0)_:
+1 q(3_0_0)
+1 q(3_0_1)
+1 q(3_0_2)
+1 q(3_0_3)
+1 q(3_0_4)
+1 q(3_0_5)
+1 q(3_0_6)
+1 q(3_0_7)
<= 120

c_u_Capacity(3_1)_:
+1 q(3_1_0)
+1 q(3_1_1)
+1 q(3_1_2)
+1 q(3_1_3)
+1 q(3_1_4)
+1 q(3_1_5)
+1 q(3_1_6)
+1 q(3_1_7)
<= 1000

c_u_Capacity(4_0)_:
+1 q(4_0_0)
+1 q(4_0_1)
+1 q(4_0_2)
+1 q(4_0_3)
+1 q(4_0_4)
+1 q(4_0_5)
+1 q(4_0_6)
+1 q(4_0_7)
<= 120

c_u_Capacity(4_1)_:
+1 q(4_1_0)
+1 q(4_1_1)
+1 q(4_1_2)
+1 q(4_1_3)
+1 q(4_1_4)
+1 q(4_1_5)
+1 q(4_1_6)
+1 q(4_1_7)
<= 1000

c_u_Capacity(5_0)_:
+1 q(5_0_0)
+1 q(5_0_1)
+1 q(5_0_2)
+1 q(5_0_3)
+1 q(5_0_4)
+1 q(5_0_5)
+1 q(5_0_6)
+1 q(5_0_7)
<= 120

c_u_Capacity(5_1)_:
+1 q(5_1_0)
+1 q(5_1_1)
+1 q(5_1_2)
+1 q(5_1_3)
+1 q(5_1_4)
+1 q(5_1_5)
+1 q(5_1_6)
+1 q(5_1_7)
<= 1000

c_u_Capacity(6_0)_:
+1 q(6_0_0)
+1 q(6_0_1)
+1 q(6_0_2)
+1 q(6_0_3)
+1 q(6_0_4)
+1 q(6_0_5)
+1 q(6_0_6)
+1 q(6_0_7)
<= 120

c_u_Capacity(6_1)_:
+1 q(6_1_0)
+1 q(6_1_1)
+1 q(6_1_2)
+1 q(6_1_3)
+1 q(6_1_4)
+1 q(6_1_5)
+1 q(6_1_6)
+1 q(6_1_7)
<= 1000

c_u_Capacity(7_0)_:
+1 q(7_0_0)
+1 q(7_0_1)
+1 q(7_0_2)
+1 q(7_0_3)
+1 q(7_0_4)
+1 q(7_0_5)
+1 q(7_0_6)
+1 q(7_0_7)
<= 120

c_u_Capacity(7_1)_:
+1 q(7_1_0)
+1 q(7_1_1)
+1 q(7_1_2)
+1 q(7_1_3)
+1 q(7_1_4)
+1 q(7_1_5)
+1 q(7_1_6)
+1 q(7_1_7)
<= 1000

c_u_Capacity(8_0)_:
+1 q(8_0_0)
+1 q(8_0_1)
+1 q(8_0_2)
+1 q(8_0_3)
+1 q(8_0_4)
+1 q(8_0_5)
+1 q(8_0_6)
+1 q(8_0_7)
<= 120

c_u_Capacity(8_1)_:
+1 q(8_1_0)
+1 q(8_1_1)
+1 q(8_1_2)
+1 q(8_1_3)
+1 q(8_1_4)
+1 q(8_1_5)
+1 q(8_1_6)
+1 q(8_1_7)
<= 1000

c_u_Capacity(9_0)_:
+1 q(9_0_0)
+1 q(9_0_1)
+1 q(9_0_2)
+1 q(9_0_3)
+1 q(9_0_4)
+1 q(9_0_5)
+1 q(9_0_6)
+1 q(9_0_7)
<= 120

c_u_Capacity(9_1)_:
+1 q(9_1_0)
+1 q(9_1_1)
+1 q(9_1_2)
+1 q(9_1_3)
+1 q(9_1_4)
+1 q(9_1_5)
+1 q(9_1_6)
+1 q(9_1_7)
<= 1000

c_u_Capacity(10_0)_:
+1 q(10_0_0)
+1 q(10_0_1)
+1 q(10_0_2)
+1 q(10_0_3)
+1 q(10_0_4)
+1 q(10_0_5)
+1 q(10_0_6)
+1 q(10_0_7)
<= 120

c_u_Capacity(10_1)_:
+1 q(10_1_0)
+1 q(10_1_1)
+1 q(10_1_2)
+1 q(10_1_3)
+1 q(10_1_4)
+1 q(10_1_5)
+1 q(10_1_6)
+1 q(10_1_7)
<= 1000

c_u_Capacity(11_0)_:
+1 q(11_0_0)
+1 q(11_0_1)
+1 q(11_0_2)
+1 q(11_0_3)
+1 q(11_0_4)
+1 q(11_0_5)
+1 q(11_0_6)
+1 q(11_0_7)
<= 120

c_u_Capacity(11_1)_:
+1 q(11_1_0)
+1 q(11_1_1)
+1 q(11_1_2)
+1 q(11_1_3)
+1 q(11_1_4)
+1 q(11_1_5)
+1 q(11_1_6)
+1 q(11_1_7)
<= 1000

c_u_Capacity(12_0)_:
+1 q(12_0_0)
+1 q(12_0_1)
+1 q(12_0_2)
+1 q(12_0_3)
+1 q(12_0_4)
+1 q(12_0_5)
+1 q(12_0_6)
+1 q(12_0_7)
<= 120

c_u_Capacity(12_1)_:
+1 q(12_1_0)
+1 q(12_1_1)
+1 q(12_1_2)
+1 q(12_1_3)
+1 q(12_1_4)
+1 q(12_1_5)
+1 q(12_1_6)
+1 q(12_1_7)
<= 1000

c_u_Capacity(13_0)_:
+1 q(13_0_0)
+1 q(13_0_1)
+1 q(13_0_2)
+1 q(13_0_3)
+1 q(13_0_4)
+1 q(13_0_5)
+1 q(13_0_6)
+1 q(13_0_7)
<= 120

c_u_Capacity(13_1)_:
+1 q(13_1_0)
+1 q(13_1_1)
+1 q(13_1_2)
+1 q(13_1_3)
+1 q(13_1_4)
+1 q(13_1_5)
+1 q(13_1_6)
+1 q(13_1_7)
<= 1000

c_u_Capacity(14_0)_:
+1 q(14_0_0)
+1 q(14_0_1)
+1 q(14_0_2)
+1 q(14_0_3)
+1 q(14_0_4)
+1 q(14_0_5)
+1 q(14_0_6)
+1 q(14_0_7)
<= 120

c_u_Capacity(14_1)_:
+1 q(14_1_0)
+1 q(14_1_1)
+1 q(14_1_2)
+1 q(14_1_3)
+1 q(14_1_4)
+1 q(14_1_5)
+1 q(14_1_6)
+1 q(14_1_7)
<= 1000

c_u_Linking(0_0_0)_:
-26 x(0_0)
+1 q(0_0_0)
<= 0

c_u_Linking(0_0_1)_:
-23 x(0_1)
+1 q(0_0_1)
<= 0

c_u_Linking(0_0_2)_:
-29 x(0_2)
+1 q(0_0_2)
<= 0

c_u_Linking(0_0_3)_:
-22 x(0_3)
+1 q(0_0_3)
<= 0

c_u_Linking(0_0_4)_:
-18 x(0_4)
+1 q(0_0_4)
<= 0

c_u_Linking(0_0_5)_:
-17 x(0_5)
+1 q(0_0_5)
<= 0

c_u_Linking(0_0_6)_:
-18 x(0_6)
+1 q(0_0_6)
<= 0

c_u_Linking(0_0_7)_:
-14 x(0_7)
+1 q(0_0_7)
<= 0

c_u_Linking(0_1_0)_:
-26 x(1_0)
+1 q(0_1_0)
<= 0

c_u_Linking(0_1_1)_:
-23 x(1_1)
+1 q(0_1_1)
<= 0

c_u_Linking(0_1_2)_:
-29 x(1_2)
+1 q(0_1_2)
<= 0

c_u_Linking(0_1_3)_:
-22 x(1_3)
+1 q(0_1_3)
<= 0

c_u_Linking(0_1_4)_:
-18 x(1_4)
+1 q(0_1_4)
<= 0

c_u_Linking(0_1_5)_:
-17 x(1_5)
+1 q(0_1_5)
<= 0

c_u_Linking(0_1_6)_:
-18 x(1_6)
+1 q(0_1_6)
<= 0

c_u_Linking(0_1_7)_:
-14 x(1_7)
+1 q(0_1_7)
<= 0

c_u_Linking(1_0_0)_:
-25 x(0_0)
+1 q(1_0_0)
<= 0

c_u_Linking(1_0_1)_:
-23 x(0_1)
+1 q(1_0_1)
<= 0

c_u_Linking(1_0_2)_:
-28 x(0_2)
+1 q(1_0_2)
<= 0

c_u_Linking(1_0_3)_:
-22 x(0_3)
+1 q(1_0_3)
<= 0

c_u_Linking(1_0_4)_:
-18 x(0_4)
+1 q(1_0_4)
<= 0

c_u_Linking(1_0_5)_:
-18 x(0_5)
+1 q(1_0_5)
<= 0

c_u_Linking(1_0_6)_:
-18 x(0_6)
+1 q(1_0_6)
<= 0

c_u_Linking(1_0_7)_:
-13 x(0_7)
+1 q(1_0_7)
<= 0

c_u_Linking(1_1_0)_:
-25 x(1_0)
+1 q(1_1_0)
<= 0

c_u_Linking(1_1_1)_:
-23 x(1_1)
+1 q(1_1_1)
<= 0

c_u_Linking(1_1_2)_:
-28 x(1_2)
+1 q(1_1_2)
<= 0

c_u_Linking(1_1_3)_:
-22 x(1_3)
+1 q(1_1_3)
<= 0

c_u_Linking(1_1_4)_:
-18 x(1_4)
+1 q(1_1_4)
<= 0

c_u_Linking(1_1_5)_:
-18 x(1_5)
+1 q(1_1_5)
<= 0

c_u_Linking(1_1_6)_:
-18 x(1_6)
+1 q(1_1_6)
<= 0

c_u_Linking(1_1_7)_:
-13 x(1_7)
+1 q(1_1_7)
<= 0

c_u_Linking(2_0_0)_:
-26 x(0_0)
+1 q(2_0_0)
<= 0

c_u_Linking(2_0_1)_:
-23 x(0_1)
+1 q(2_0_1)
<= 0

c_u_Linking(2_0_2)_:
-28 x(0_2)
+1 q(2_0_2)
<= 0

c_u_Linking(2_0_3)_:
-24 x(0_3)
+1 q(2_0_3)
<= 0

c_u_Linking(2_0_4)_:
-18 x(0_4)
+1 q(2_0_4)
<= 0

c_u_Linking(2_0_5)_:
-17 x(0_5)
+1 q(2_0_5)
<= 0

c_u_Linking(2_0_6)_:
-18 x(0_6)
+1 q(2_0_6)
<= 0

c_u_Linking(2_0_7)_:
-13 x(0_7)
+1 q(2_0_7)
<= 0

c_u_Linking(2_1_0)_:
-26 x(1_0)
+1 q(2_1_0)
<= 0

c_u_Linking(2_1_1)_:
-23 x(1_1)
+1 q(2_1_1)
<= 0

c_u_Linking(2_1_2)_:
-28 x(1_2)
+1 q(2_1_2)
<= 0

c_u_Linking(2_1_3)_:
-24 x(1_3)
+1 q(2_1_3)
<= 0

c_u_Linking(2_1_4)_:
-18 x(1_4)
+1 q(2_1_4)
<= 0

c_u_Linking(2_1_5)_:
-17 x(1_5)
+1 q(2_1_5)
<= 0

c_u_Linking(2_1_6)_:
-18 x(1_6)
+1 q(2_1_6)
<= 0

c_u_Linking(2_1_7)_:
-13 x(1_7)
+1 q(2_1_7)
<= 0

c_u_Linking(3_0_0)_:
-26 x(0_0)
+1 q(3_0_0)
<= 0

c_u_Linking(3_0_1)_:
-23 x(0_1)
+1 q(3_0_1)
<= 0

c_u_Linking(3_0_2)_:
-27 x(0_2)
+1 q(3_0_2)
<= 0

c_u_Linking(3_0_3)_:
-22 x(0_3)
+1 q(3_0_3)
<= 0

c_u_Linking(3_0_4)_:
-18 x(0_4)
+1 q(3_0_4)
<= 0

c_u_Linking(3_0_5)_:
-17 x(0_5)
+1 q(3_0_5)
<= 0

c_u_Linking(3_0_6)_:
-17 x(0_6)
+1 q(3_0_6)
<= 0

c_u_Linking(3_0_7)_:
-14 x(0_7)
+1 q(3_0_7)
<= 0

c_u_Linking(3_1_0)_:
-26 x(1_0)
+1 q(3_1_0)
<= 0

c_u_Linking(3_1_1)_:
-23 x(1_1)
+1 q(3_1_1)
<= 0

c_u_Linking(3_1_2)_:
-27 x(1_2)
+1 q(3_1_2)
<= 0

c_u_Linking(3_1_3)_:
-22 x(1_3)
+1 q(3_1_3)
<= 0

c_u_Linking(3_1_4)_:
-18 x(1_4)
+1 q(3_1_4)
<= 0

c_u_Linking(3_1_5)_:
-17 x(1_5)
+1 q(3_1_5)
<= 0

c_u_Linking(3_1_6)_:
-17 x(1_6)
+1 q(3_1_6)
<= 0

c_u_Linking(3_1_7)_:
-14 x(1_7)
+1 q(3_1_7)
<= 0

c_u_Linking(4_0_0)_:
-25 x(0_0)
+1 q(4_0_0)
<= 0

c_u_Linking(4_0_1)_:
-22 x(0_1)
+1 q(4_0_1)
<= 0

c_u_Linking(4_0_2)_:
-28 x(0_2)
+1 q(4_0_2)
<= 0

c_u_Linking(4_0_3)_:
-22 x(0_3)
+1 q(4_0_3)
<= 0

c_u_Linking(4_0_4)_:
-19 x(0_4)
+1 q(4_0_4)
<= 0

c_u_Linking(4_0_5)_:
-17 x(0_5)
+1 q(4_0_5)
<= 0

c_u_Linking(4_0_6)_:
-18 x(0_6)
+1 q(4_0_6)
<= 0

c_u_Linking(4_0_7)_:
-13 x(0_7)
+1 q(4_0_7)
<= 0

c_u_Linking(4_1_0)_:
-25 x(1_0)
+1 q(4_1_0)
<= 0

c_u_Linking(4_1_1)_:
-22 x(1_1)
+1 q(4_1_1)
<= 0

c_u_Linking(4_1_2)_:
-28 x(1_2)
+1 q(4_1_2)
<= 0

c_u_Linking(4_1_3)_:
-22 x(1_3)
+1 q(4_1_3)
<= 0

c_u_Linking(4_1_4)_:
-19 x(1_4)
+1 q(4_1_4)
<= 0

c_u_Linking(4_1_5)_:
-17 x(1_5)
+1 q(4_1_5)
<= 0

c_u_Linking(4_1_6)_:
-18 x(1_6)
+1 q(4_1_6)
<= 0

c_u_Linking(4_1_7)_:
-13 x(1_7)
+1 q(4_1_7)
<= 0

c_u_Linking(5_0_0)_:
-26 x(0_0)
+1 q(5_0_0)
<= 0

c_u_Linking(5_0_1)_:
-23 x(0_1)
+1 q(5_0_1)
<= 0

c_u_Linking(5_0_2)_:
-29 x(0_2)
+1 q(5_0_2)
<= 0

c_u_Linking(5_0_3)_:
-22 x(0_3)
+1 q(5_0_3)
<= 0

c_u_Linking(5_0_4)_:
-18 x(0_4)
+1 q(5_0_4)
<= 0

c_u_Linking(5_0_5)_:
-17 x(0_5)
+1 q(5_0_5)
<= 0

c_u_Linking(5_0_6)_:
-18 x(0_6)
+1 q(5_0_6)
<= 0

c_u_Linking(5_0_7)_:
-14 x(0_7)
+1 q(5_0_7)
<= 0

c_u_Linking(5_1_0)_:
-26 x(1_0)
+1 q(5_1_0)
<= 0

c_u_Linking(5_1_1)_:
-23 x(1_1)
+1 q(5_1_1)
<= 0

c_u_Linking(5_1_2)_:
-29 x(1_2)
+1 q(5_1_2)
<= 0

c_u_Linking(5_1_3)_:
-22 x(1_3)
+1 q(5_1_3)
<= 0

c_u_Linking(5_1_4)_:
-18 x(1_4)
+1 q(5_1_4)
<= 0

c_u_Linking(5_1_5)_:
-17 x(1_5)
+1 q(5_1_5)
<= 0

c_u_Linking(5_1_6)_:
-18 x(1_6)
+1 q(5_1_6)
<= 0

c_u_Linking(5_1_7)_:
-14 x(1_7)
+1 q(5_1_7)
<= 0

c_u_Linking(6_0_0)_:
-26 x(0_0)
+1 q(6_0_0)
<= 0

c_u_Linking(6_0_1)_:
-23 x(0_1)
+1 q(6_0_1)
<= 0

c_u_Linking(6_0_2)_:
-28 x(0_2)
+1 q(6_0_2)
<= 0

c_u_Linking(6_0_3)_:
-22 x(0_3)
+1 q(6_0_3)
<= 0

c_u_Linking(6_0_4)_:
-18 x(0_4)
+1 q(6_0_4)
<= 0

c_u_Linking(6_0_5)_:
-16 x(0_5)
+1 q(6_0_5)
<= 0

c_u_Linking(6_0_6)_:
-18 x(0_6)
+1 q(6_0_6)
<= 0

c_u_Linking(6_0_7)_:
-12 x(0_7)
+1 q(6_0_7)
<= 0

c_u_Linking(6_1_0)_:
-26 x(1_0)
+1 q(6_1_0)
<= 0

c_u_Linking(6_1_1)_:
-23 x(1_1)
+1 q(6_1_1)
<= 0

c_u_Linking(6_1_2)_:
-28 x(1_2)
+1 q(6_1_2)
<= 0

c_u_Linking(6_1_3)_:
-22 x(1_3)
+1 q(6_1_3)
<= 0

c_u_Linking(6_1_4)_:
-18 x(1_4)
+1 q(6_1_4)
<= 0

c_u_Linking(6_1_5)_:
-16 x(1_5)
+1 q(6_1_5)
<= 0

c_u_Linking(6_1_6)_:
-18 x(1_6)
+1 q(6_1_6)
<= 0

c_u_Linking(6_1_7)_:
-12 x(1_7)
+1 q(6_1_7)
<= 0

c_u_Linking(7_0_0)_:
-26 x(0_0)
+1 q(7_0_0)
<= 0

c_u_Linking(7_0_1)_:
-23 x(0_1)
+1 q(7_0_1)
<= 0

c_u_Linking(7_0_2)_:
-27 x(0_2)
+1 q(7_0_2)
<= 0

c_u_Linking(7_0_3)_:
-22 x(0_3)
+1 q(7_0_3)
<= 0

c_u_Linking(7_0_4)_:
-18 x(0_4)
+1 q(7_0_4)
<= 0

c_u_Linking(7_0_5)_:
-17 x(0_5)
+1 q(7_0_5)
<= 0

c_u_Linking(7_0_6)_:
-17 x(0_6)
+1 q(7_0_6)
<= 0

c_u_Linking(7_0_7)_:
-14 x(0_7)
+1 q(7_0_7)
<= 0

c_u_Linking(7_1_0)_:
-26 x(1_0)
+1 q(7_1_0)
<= 0

c_u_Linking(7_1_1)_:
-23 x(1_1)
+1 q(7_1_1)
<= 0

c_u_Linking(7_1_2)_:
-27 x(1_2)
+1 q(7_1_2)
<= 0

c_u_Linking(7_1_3)_:
-22 x(1_3)
+1 q(7_1_3)
<= 0

c_u_Linking(7_1_4)_:
-18 x(1_4)
+1 q(7_1_4)
<= 0

c_u_Linking(7_1_5)_:
-17 x(1_5)
+1 q(7_1_5)
<= 0

c_u_Linking(7_1_6)_:
-17 x(1_6)
+1 q(7_1_6)
<= 0

c_u_Linking(7_1_7)_:
-14 x(1_7)
+1 q(7_1_7)
<= 0

c_u_Linking(8_0_0)_:
-26 x(0_0)
+1 q(8_0_0)
<= 0

c_u_Linking(8_0_1)_:
-22 x(0_1)
+1 q(8_0_1)
<= 0

c_u_Linking(8_0_2)_:
-28 x(0_2)
+1 q(8_0_2)
<= 0

c_u_Linking(8_0_3)_:
-22 x(0_3)
+1 q(8_0_3)
<= 0

c_u_Linking(8_0_4)_:
-18 x(0_4)
+1 q(8_0_4)
<= 0

c_u_Linking(8_0_5)_:
-16 x(0_5)
+1 q(8_0_5)
<= 0

c_u_Linking(8_0_6)_:
-17 x(0_6)
+1 q(8_0_6)
<= 0

c_u_Linking(8_0_7)_:
-12 x(0_7)
+1 q(8_0_7)
<= 0

c_u_Linking(8_1_0)_:
-26 x(1_0)
+1 q(8_1_0)
<= 0

c_u_Linking(8_1_1)_:
-22 x(1_1)
+1 q(8_1_1)
<= 0

c_u_Linking(8_1_2)_:
-28 x(1_2)
+1 q(8_1_2)
<= 0

c_u_Linking(8_1_3)_:
-22 x(1_3)
+1 q(8_1_3)
<= 0

c_u_Linking(8_1_4)_:
-18 x(1_4)
+1 q(8_1_4)
<= 0

c_u_Linking(8_1_5)_:
-16 x(1_5)
+1 q(8_1_5)
<= 0

c_u_Linking(8_1_6)_:
-17 x(1_6)
+1 q(8_1_6)
<= 0

c_u_Linking(8_1_7)_:
-12 x(1_7)
+1 q(8_1_7)
<= 0

c_u_Linking(9_0_0)_:
-27 x(0_0)
+1 q(9_0_0)
<= 0

c_u_Linking(9_0_1)_:
-23 x(0_1)
+1 q(9_0_1)
<= 0

c_u_Linking(9_0_2)_:
-28 x(0_2)
+1 q(9_0_2)
<= 0

c_u_Linking(9_0_3)_:
-22 x(0_3)
+1 q(9_0_3)
<= 0

c_u_Linking(9_0_4)_:
-18 x(0_4)
+1 q(9_0_4)
<= 0

c_u_Linking(9_0_5)_:
-16 x(0_5)
+1 q(9_0_5)
<= 0

c_u_Linking(9_0_6)_:
-17 x(0_6)
+1 q(9_0_6)
<= 0

c_u_Linking(9_0_7)_:
-13 x(0_7)
+1 q(9_0_7)
<= 0

c_u_Linking(9_1_0)_:
-27 x(1_0)
+1 q(9_1_0)
<= 0

c_u_Linking(9_1_1)_:
-23 x(1_1)
+1 q(9_1_1)
<= 0

c_u_Linking(9_1_2)_:
-28 x(1_2)
+1 q(9_1_2)
<= 0

c_u_Linking(9_1_3)_:
-22 x(1_3)
+1 q(9_1_3)
<= 0

c_u_Linking(9_1_4)_:
-18 x(1_4)
+1 q(9_1_4)
<= 0

c_u_Linking(9_1_5)_:
-16 x(1_5)
+1 q(9_1_5)
<= 0

c_u_Linking(9_1_6)_:
-17 x(1_6)
+1 q(9_1_6)
<= 0

c_u_Linking(9_1_7)_:
-13 x(1_7)
+1 q(9_1_7)
<= 0

c_u_Linking(10_0_0)_:
-27 x(0_0)
+1 q(10_0_0)
<= 0

c_u_Linking(10_0_1)_:
-23 x(0_1)
+1 q(10_0_1)
<= 0

c_u_Linking(10_0_2)_:
-28 x(0_2)
+1 q(10_0_2)
<= 0

c_u_Linking(10_0_3)_:
-22 x(0_3)
+1 q(10_0_3)
<= 0

c_u_Linking(10_0_4)_:
-18 x(0_4)
+1 q(10_0_4)
<= 0

c_u_Linking(10_0_5)_:
-16 x(0_5)
+1 q(10_0_5)
<= 0

c_u_Linking(10_0_6)_:
-17 x(0_6)
+1 q(10_0_6)
<= 0

c_u_Linking(10_0_7)_:
-13 x(0_7)
+1 q(10_0_7)
<= 0

c_u_Linking(10_1_0)_:
-27 x(1_0)
+1 q(10_1_0)
<= 0

c_u_Linking(10_1_1)_:
-23 x(1_1)
+1 q(10_1_1)
<= 0

c_u_Linking(10_1_2)_:
-28 x(1_2)
+1 q(10_1_2)
<= 0

c_u_Linking(10_1_3)_:
-22 x(1_3)
+1 q(10_1_3)
<= 0

c_u_Linking(10_1_4)_:
-18 x(1_4)
+1 q(10_1_4)
<= 0

c_u_Linking(10_1_5)_:
-16 x(1_5)
+1 q(10_1_5)
<= 0

c_u_Linking(10_1_6)_:
-17 x(1_6)
+1 q(10_1_6)
<= 0

c_u_Linking(10_1_7)_:
-13 x(1_7)
+1 q(10_1_7)
<= 0

c_u_Linking(11_0_0)_:
-26 x(0_0)
+1 q(11_0_0)
<= 0

c_u_Linking(11_0_1)_:
-22 x(0_1)
+1 q(11_0_1)
<= 0

c_u_Linking(11_0_2)_:
-28 x(0_2)
+1 q(11_0_2)
<= 0

c_u_Linking(11_0_3)_:
-22 x(0_3)
+1 q(11_0_3)
<= 0

c_u_Linking(11_0_4)_:
-18 x(0_4)
+1 q(11_0_4)
<= 0

c_u_Linking(11_0_5)_:
-17 x(0_5)
+1 q(11_0_5)
<= 0

c_u_Linking(11_0_6)_:
-18 x(0_6)
+1 q(11_0_6)
<= 0

c_u_Linking(11_0_7)_:
-14 x(0_7)
+1 q(11_0_7)
<= 0

c_u_Linking(11_1_0)_:
-26 x(1_0)
+1 q(11_1_0)
<= 0

c_u_Linking(11_1_1)_:
-22 x(1_1)
+1 q(11_1_1)
<= 0

c_u_Linking(11_1_2)_:
-28 x(1_2)
+1 q(11_1_2)
<= 0

c_u_Linking(11_1_3)_:
-22 x(1_3)
+1 q(11_1_3)
<= 0

c_u_Linking(11_1_4)_:
-18 x(1_4)
+1 q(11_1_4)
<= 0

c_u_Linking(11_1_5)_:
-17 x(1_5)
+1 q(11_1_5)
<= 0

c_u_Linking(11_1_6)_:
-18 x(1_6)
+1 q(11_1_6)
<= 0

c_u_Linking(11_1_7)_:
-14 x(1_7)
+1 q(11_1_7)
<= 0

c_u_Linking(12_0_0)_:
-25 x(0_0)
+1 q(12_0_0)
<= 0

c_u_Linking(12_0_1)_:
-22 x(0_1)
+1 q(12_0_1)
<= 0

c_u_Linking(12_0_2)_:
-27 x(0_2)
+1 q(12_0_2)
<= 0

c_u_Linking(12_0_3)_:
-22 x(0_3)
+1 q(12_0_3)
<= 0

c_u_Linking(12_0_4)_:
-18 x(0_4)
+1 q(12_0_4)
<= 0

c_u_Linking(12_0_5)_:
-17 x(0_5)
+1 q(12_0_5)
<= 0

c_u_Linking(12_0_6)_:
-18 x(0_6)
+1 q(12_0_6)
<= 0

c_u_Linking(12_0_7)_:
-13 x(0_7)
+1 q(12_0_7)
<= 0

c_u_Linking(12_1_0)_:
-25 x(1_0)
+1 q(12_1_0)
<= 0

c_u_Linking(12_1_1)_:
-22 x(1_1)
+1 q(12_1_1)
<= 0

c_u_Linking(12_1_2)_:
-27 x(1_2)
+1 q(12_1_2)
<= 0

c_u_Linking(12_1_3)_:
-22 x(1_3)
+1 q(12_1_3)
<= 0

c_u_Linking(12_1_4)_:
-18 x(1_4)
+1 q(12_1_4)
<= 0

c_u_Linking(12_1_5)_:
-17 x(1_5)
+1 q(12_1_5)
<= 0

c_u_Linking(12_1_6)_:
-18 x(1_6)
+1 q(12_1_6)
<= 0

c_u_Linking(12_1_7)_:
-13 x(1_7)
+1 q(12_1_7)
<= 0

c_u_Linking(13_0_0)_:
-25 x(0_0)
+1 q(13_0_0)
<= 0

c_u_Linking(13_0_1)_:
-22 x(0_1)
+1 q(13_0_1)
<= 0

c_u_Linking(13_0_2)_:
-27 x(0_2)
+1 q(13_0_2)
<= 0

c_u_Linking(13_0_3)_:
-22 x(0_3)
+1 q(13_0_3)
<= 0

c_u_Linking(13_0_4)_:
-18 x(0_4)
+1 q(13_0_4)
<= 0

c_u_Linking(13_0_5)_:
-17 x(0_5)
+1 q(13_0_5)
<= 0

c_u_Linking(13_0_6)_:
-18 x(0_6)
+1 q(13_0_6)
<= 0

c_u_Linking(13_0_7)_:
-13 x(0_7)
+1 q(13_0_7)
<= 0

c_u_Linking(13_1_0)_:
-25 x(1_0)
+1 q(13_1_0)
<= 0

c_u_Linking(13_1_1)_:
-22 x(1_1)
+1 q(13_1_1)
<= 0

c_u_Linking(13_1_2)_:
-27 x(1_2)
+1 q(13_1_2)
<= 0

c_u_Linking(13_1_3)_:
-22 x(1_3)
+1 q(13_1_3)
<= 0

c_u_Linking(13_1_4)_:
-18 x(1_4)
+1 q(13_1_4)
<= 0

c_u_Linking(13_1_5)_:
-17 x(1_5)
+1 q(13_1_5)
<= 0

c_u_Linking(13_1_6)_:
-18 x(1_6)
+1 q(13_1_6)
<= 0

c_u_Linking(13_1_7)_:
-13 x(1_7)
+1 q(13_1_7)
<= 0

c_u_Linking(14_0_0)_:
-27 x(0_0)
+1 q(14_0_0)
<= 0

c_u_Linking(14_0_1)_:
-23 x(0_1)
+1 q(14_0_1)
<= 0

c_u_Linking(14_0_2)_:
-28 x(0_2)
+1 q(14_0_2)
<= 0

c_u_Linking(14_0_3)_:
-22 x(0_3)
+1 q(14_0_3)
<= 0

c_u_Linking(14_0_4)_:
-18 x(0_4)
+1 q(14_0_4)
<= 0

c_u_Linking(14_0_5)_:
-16 x(0_5)
+1 q(14_0_5)
<= 0

c_u_Linking(14_0_6)_:
-17 x(0_6)
+1 q(14_0_6)
<= 0

c_u_Linking(14_0_7)_:
-13 x(0_7)
+1 q(14_0_7)
<= 0

c_u_Linking(14_1_0)_:
-27 x(1_0)
+1 q(14_1_0)
<= 0

c_u_Linking(14_1_1)_:
-23 x(1_1)
+1 q(14_1_1)
<= 0

c_u_Linking(14_1_2)_:
-28 x(1_2)
+1 q(14_1_2)
<= 0

c_u_Linking(14_1_3)_:
-22 x(1_3)
+1 q(14_1_3)
<= 0

c_u_Linking(14_1_4)_:
-18 x(1_4)
+1 q(14_1_4)
<= 0

c_u_Linking(14_1_5)_:
-16 x(1_5)
+1 q(14_1_5)
<= 0

c_u_Linking(14_1_6)_:
-17 x(1_6)
+1 q(14_1_6)
<= 0

c_u_Linking(14_1_7)_:
-13 x(1_7)
+1 q(14_1_7)
<= 0

bounds
   0 <= x(0_0) <= 1
   0 <= x(0_1) <= 1
   0 <= x(0_2) <= 1
   0 <= x(0_3) <= 1
   0 <= x(0_4) <= 1
   0 <= x(0_5) <= 1
   0 <= x(0_6) <= 1
   0 <= x(0_7) <= 1
   0 <= x(1_0) <= 1
   0 <= x(1_1) <= 1
   0 <= x(1_2) <= 1
   0 <= x(1_3) <= 1
   0 <= x(1_4) <= 1
   0 <= x(1_5) <= 1
   0 <= x(1_6) <= 1
   0 <= x(1_7) <= 1
   0 <= q(0_0_0) <= +inf
   0 <= q(0_0_1) <= +inf
   0 <= q(0_0_2) <= +inf
   0 <= q(0_0_3) <= +inf
   0 <= q(0_0_4) <= +inf
   0 <= q(0_0_5) <= +inf
   0 <= q(0_0_6) <= +inf
   0 <= q(0_0_7) <= +inf
   0 <= q(0_1_0) <= +inf
   0 <= q(0_1_1) <= +inf
   0 <= q(0_1_2) <= +inf
   0 <= q(0_1_3) <= +inf
   0 <= q(0_1_4) <= +inf
   0 <= q(0_1_5) <= +inf
   0 <= q(0_1_6) <= +inf
   0 <= q(0_1_7) <= +inf
   0 <= q(1_0_0) <= +inf
   0 <= q(1_0_1) <= +inf
   0 <= q(1_0_2) <= +inf
   0 <= q(1_0_3) <= +inf
   0 <= q(1_0_4) <= +inf
   0 <= q(1_0_5) <= +inf
   0 <= q(1_0_6) <= +inf
   0 <= q(1_0_7) <= +inf
   0 <= q(1_1_0) <= +inf
   0 <= q(1_1_1) <= +inf
   0 <= q(1_1_2) <= +inf
   0 <= q(1_1_3) <= +inf
   0 <= q(1_1_4) <= +inf
   0 <= q(1_1_5) <= +inf
   0 <= q(1_1_6) <= +inf
   0 <= q(1_1_7) <= +inf
   0 <= q(2_0_0) <= +inf
   0 <= q(2_0_1) <= +inf
   0 <= q(2_0_2) <= +inf
   0 <= q(2_0_3) <= +inf
   0 <= q(2_0_4) <= +inf
   0 <= q(2_0_5) <= +inf
   0 <= q(2_0_6) <= +inf
   0 <= q(2_0_7) <= +inf
   0 <= q(2_1_0) <= +inf
   0 <= q(2_1_1) <= +inf
   0 <= q(2_1_2) <= +inf
   0 <= q(2_1_3) <= +inf
   0 <= q(2_1_4) <= +inf
   0 <= q(2_1_5) <= +inf
   0 <= q(2_1_6) <= +inf
   0 <= q(2_1_7) <= +inf
   0 <= q(3_0_0) <= +inf
   0 <= q(3_0_1) <= +inf
   0 <= q(3_0_2) <= +inf
   0 <= q(3_0_3) <= +inf
   0 <= q(3_0_4) <= +inf
   0 <= q(3_0_5) <= +inf
   0 <= q(3_0_6) <= +inf
   0 <= q(3_0_7) <= +inf
   0 <= q(3_1_0) <= +inf
   0 <= q(3_1_1) <= +inf
   0 <= q(3_1_2) <= +inf
   0 <= q(3_1_3) <= +inf
   0 <= q(3_1_4) <= +inf
   0 <= q(3_1_5) <= +inf
   0 <= q(3_1_6) <= +inf
   0 <= q(3_1_7) <= +inf
   0 <= q(4_0_0) <= +inf
   0 <= q(4_0_1) <= +inf
   0 <= q(4_0_2) <= +inf
   0 <= q(4_0_3) <= +inf
   0 <= q(4_0_4) <= +inf
   0 <= q(4_0_5) <= +inf
   0 <= q(4_0_6) <= +inf
   0 <= q(4_0_7) <= +inf
   0 <= q(4_1_0) <= +inf
   0 <= q(4_1_1) <= +inf
   0 <= q(4_1_2) <= +inf
   0 <= q(4_1_3) <= +inf
   0 <= q(4_1_4) <= +inf
   0 <= q(4_1_5) <= +inf
   0 <= q(4_1_6) <= +inf
   0 <= q(4_1_7) <= +inf
   0 <= q(5_0_0) <= +inf
   0 <= q(5_0_1) <= +inf
   0 <= q(5_0_2) <= +inf
   0 <= q(5_0_3) <= +inf
   0 <= q(5_0_4) <= +inf
   0 <= q(5_0_5) <= +inf
   0 <= q(5_0_6) <= +inf
   0 <= q(5_0_7) <= +inf
   0 <= q(5_1_0) <= +inf
   0 <= q(5_1_1) <= +inf
   0 <= q(5_1_2) <= +inf
   0 <= q(5_1_3) <= +inf
   0 <= q(5_1_4) <= +inf
   0 <= q(5_1_5) <= +inf
   0 <= q(5_1_6) <= +inf
   0 <= q(5_1_7) <= +inf
   0 <= q(6_0_0) <= +inf
   0 <= q(6_0_1) <= +inf
   0 <= q(6_0_2) <= +inf
   0 <= q(6_0_3) <= +inf
   0 <= q(6_0_4) <= +inf
   0 <= q(6_0_5) <= +inf
   0 <= q(6_0_6) <= +inf
   0 <= q(6_0_7) <= +inf
   0 <= q(6_1_0) <= +inf
   0 <= q(6_1_1) <= +inf
   0 <= q(6_1_2) <= +inf
   0 <= q(6_1_3) <= +inf
   0 <= q(6_1_4) <= +inf
   0 <= q(6_1_5) <= +inf
   0 <= q(6_1_6) <= +inf
   0 <= q(6_1_7) <= +inf
   0 <= q(7_0_0) <= +inf
   0 <= q(7_0_1) <= +inf
   0 <= q(7_0_2) <= +inf
   0 <= q(7_0_3) <= +inf
   0 <= q(7_0_4) <= +inf
   0 <= q(7_0_5) <= +inf
   0 <= q(7_0_6) <= +inf
   0 <= q(7_0_7) <= +inf
   0 <= q(7_1_0) <= +inf
   0 <= q(7_1_1) <= +inf
   0 <= q(7_1_2) <= +inf
   0 <= q(7_1_3) <= +inf
   0 <= q(7_1_4) <= +inf
   0 <= q(7_1_5) <= +inf
   0 <= q(7_1_6) <= +inf
   0 <= q(7_1_7) <= +inf
   0 <= q(8_0_0) <= +inf
   0 <= q(8_0_1) <= +inf
   0 <= q(8_0_2) <= +inf
   0 <= q(8_0_3) <= +inf
   0 <= q(8_0_4) <= +inf
   0 <= q(8_0_5) <= +inf
   0 <= q(8_0_6) <= +inf
   0 <= q(8_0_7) <= +inf
   0 <= q(8_1_0) <= +inf
   0 <= q(8_1_1) <= +inf
   0 <= q(8_1_2) <= +inf
   0 <= q(8_1_3) <= +inf
   0 <= q(8_1_4) <= +inf
   0 <= q(8_1_5) <= +inf
   0 <= q(8_1_6) <= +inf
   0 <= q(8_1_7) <= +inf
   0 <= q(9_0_0) <= +inf
   0 <= q(9_0_1) <= +inf
   0 <= q(9_0_2) <= +inf
   0 <= q(9_0_3) <= +inf
   0 <= q(9_0_4) <= +inf
   0 <= q(9_0_5) <= +inf
   0 <= q(9_0_6) <= +inf
   0 <= q(9_0_7) <= +inf
   0 <= q(9_1_0) <= +inf
   0 <= q(9_1_1) <= +inf
   0 <= q(9_1_2) <= +inf
   0 <= q(9_1_3) <= +inf
   0 <= q(9_1_4) <= +inf
   0 <= q(9_1_5) <= +inf
   0 <= q(9_1_6) <= +inf
   0 <= q(9_1_7) <= +inf
   0 <= q(10_0_0) <= +inf
   0 <= q(10_0_1) <= +inf
   0 <= q(10_0_2) <= +inf
   0 <= q(10_0_3) <= +inf
   0 <= q(10_0_4) <= +inf
   0 <= q(10_0_5) <= +inf
   0 <= q(10_0_6) <= +inf
   0 <= q(10_0_7) <= +inf
   0 <= q(10_1_0) <= +inf
   0 <= q(10_1_1) <= +inf
   0 <= q(10_1_2) <= +inf
   0 <= q(10_1_3) <= +inf
   0 <= q(10_1_4) <= +inf
   0 <= q(10_1_5) <= +inf
   0 <= q(10_1_6) <= +inf
   0 <= q(10_1_7) <= +inf
   0 <= q(11_0_0) <= +inf
   0 <= q(11_0_1) <= +inf
   0 <= q(11_0_2) <= +inf
   0 <= q(11_0_3) <= +inf
   0 <= q(11_0_4) <= +inf
   0 <= q(11_0_5) <= +inf
   0 <= q(11_0_6) <= +inf
   0 <= q(11_0_7) <= +inf
   0 <= q(11_1_0) <= +inf
   0 <= q(11_1_1) <= +inf
   0 <= q(11_1_2) <= +inf
   0 <= q(11_1_3) <= +inf
   0 <= q(11_1_4) <= +inf
   0 <= q(11_1_5) <= +inf
   0 <= q(11_1_6) <= +inf
   0 <= q(11_1_7) <= +inf
   0 <= q(12_0_0) <= +inf
   0 <= q(12_0_1) <= +inf
   0 <= q(12_0_2) <= +inf
   0 <= q(12_0_3) <= +inf
   0 <= q(12_0_4) <= +inf
   0 <= q(12_0_5) <= +inf
   0 <= q(12_0_6) <= +inf
   0 <= q(12_0_7) <= +inf
   0 <= q(12_1_0) <= +inf
   0 <= q(12_1_1) <= +inf
   0 <= q(12_1_2) <= +inf
   0 <= q(12_1_3) <= +inf
   0 <= q(12_1_4) <= +inf
   0 <= q(12_1_5) <= +inf
   0 <= q(12_1_6) <= +inf
   0 <= q(12_1_7) <= +inf
   0 <= q(13_0_0) <= +inf
   0 <= q(13_0_1) <= +inf
   0 <= q(13_0_2) <= +inf
   0 <= q(13_0_3) <= +inf
   0 <= q(13_0_4) <= +inf
   0 <= q(13_0_5) <= +inf
   0 <= q(13_0_6) <= +inf
   0 <= q(13_0_7) <= +inf
   0 <= q(13_1_0) <= +inf
   0 <= q(13_1_1) <= +inf
   0 <= q(13_1_2) <= +inf
   0 <= q(13_1_3) <= +inf
   0 <= q(13_1_4) <= +inf
   0 <= q(13_1_5) <= +inf
   0 <= q(13_1_6) <= +inf
   0 <= q(13_1_7) <= +inf
   0 <= q(14_0_0) <= +inf
   0 <= q(14_0_1) <= +inf
   0 <= q(14_0_2) <= +inf
   0 <= q(14_0_3) <= +inf
   0 <= q(14_0_4) <= +inf
   0 <= q(14_0_5) <= +inf
   0 <= q(14_0_6) <= +inf
   0 <= q(14_0_7) <= +inf
   0 <= q(14_1_0) <= +inf
   0 <= q(14_1_1) <= +inf
   0 <= q(14_1_2) <= +inf
   0 <= q(14_1_3) <= +inf
   0 <= q(14_1_4) <= +inf
   0 <= q(14_1_5) <= +inf
   0 <= q(14_1_6) <= +inf
   0 <= q(14_1_7) <= +inf
general
  q(0_0_0)
  q(0_0_1)
  q(0_0_2)
  q(0_0_3)
  q(0_0_4)
  q(0_0_5)
  q(0_0_6)
  q(0_0_7)
  q(0_1_0)
  q(0_1_1)
  q(0_1_2)
  q(0_1_3)
  q(0_1_4)
  q(0_1_5)
  q(0_1_6)
  q(0_1_7)
  q(1_0_0)
  q(1_0_1)
  q(1_0_2)
  q(1_0_3)
  q(1_0_4)
  q(1_0_5)
  q(1_0_6)
  q(1_0_7)
  q(1_1_0)
  q(1_1_1)
  q(1_1_2)
  q(1_1_3)
  q(1_1_4)
  q(1_1_5)
  q(1_1_6)
  q(1_1_7)
  q(2_0_0)
  q(2_0_1)
  q(2_0_2)
  q(2_0_3)
  q(2_0_4)
  q(2_0_5)
  q(2_0_6)
  q(2_0_7)
  q(2_1_0)
  q(2_1_1)
  q(2_1_2)
  q(2_1_3)
  q(2_1_4)
  q(2_1_5)
  q(2_1_6)
  q(2_1_7)
  q(3_0_0)
  q(3_0_1)
  q(3_0_2)
  q(3_0_3)
  q(3_0_4)
  q(3_0_5)
  q(3_0_6)
  q(3_0_7)
  q(3_1_0)
  q(3_1_1)
  q(3_1_2)
  q(3_1_3)
  q(3_1_4)
  q(3_1_5)
  q(3_1_6)
  q(3_1_7)
  q(4_0_0)
  q(4_0_1)
  q(4_0_2)
  q(4_0_3)
  q(4_0_4)
  q(4_0_5)
  q(4_0_6)
  q(4_0_7)
  q(4_1_0)
  q(4_1_1)
  q(4_1_2)
  q(4_1_3)
  q(4_1_4)
  q(4_1_5)
  q(4_1_6)
  q(4_1_7)
  q(5_0_0)
  q(5_0_1)
  q(5_0_2)
  q(5_0_3)
  q(5_0_4)
  q(5_0_5)
  q(5_0_6)
  q(5_0_7)
  q(5_1_0)
  q(5_1_1)
  q(5_1_2)
  q(5_1_3)
  q(5_1_4)
  q(5_1_5)
  q(5_1_6)
  q(5_1_7)
  q(6_0_0)
  q(6_0_1)
  q(6_0_2)
  q(6_0_3)
  q(6_0_4)
  q(6_0_5)
  q(6_0_6)
  q(6_0_7)
  q(6_1_0)
  q(6_1_1)
  q(6_1_2)
  q(6_1_3)
  q(6_1_4)
  q(6_1_5)
  q(6_1_6)
  q(6_1_7)
  q(7_0_0)
  q(7_0_1)
  q(7_0_2)
  q(7_0_3)
  q(7_0_4)
  q(7_0_5)
  q(7_0_6)
  q(7_0_7)
  q(7_1_0)
  q(7_1_1)
  q(7_1_2)
  q(7_1_3)
  q(7_1_4)
  q(7_1_5)
  q(7_1_6)
  q(7_1_7)
  q(8_0_0)
  q(8_0_1)
  q(8_0_2)
  q(8_0_3)
  q(8_0_4)
  q(8_0_5)
  q(8_0_6)
  q(8_0_7)
  q(8_1_0)
  q(8_1_1)
  q(8_1_2)
  q(8_1_3)
  q(8_1_4)
  q(8_1_5)
  q(8_1_6)
  q(8_1_7)
  q(9_0_0)
  q(9_0_1)
  q(9_0_2)
  q(9_0_3)
  q(9_0_4)
  q(9_0_5)
  q(9_0_6)
  q(9_0_7)
  q(9_1_0)
  q(9_1_1)
  q(9_1_2)
  q(9_1_3)
  q(9_1_4)
  q(9_1_5)
  q(9_1_6)
  q(9_1_7)
  q(10_0_0)
  q(10_0_1)
  q(10_0_2)
  q(10_0_3)
  q(10_0_4)
  q(10_0_5)
  q(10_0_6)
  q(10_0_7)
  q(10_1_0)
  q(10_1_1)
  q(10_1_2)
  q(10_1_3)
  q(10_1_4)
  q(10_1_5)
  q(10_1_6)
  q(10_1_7)
  q(11_0_0)
  q(11_0_1)
  q(11_0_2)
  q(11_0_3)
  q(11_0_4)
  q(11_0_5)
  q(11_0_6)
  q(11_0_7)
  q(11_1_0)
  q(11_1_1)
  q(11_1_2)
  q(11_1_3)
  q(11_1_4)
  q(11_1_5)
  q(11_1_6)
  q(11_1_7)
  q(12_0_0)
  q(12_0_1)
  q(12_0_2)
  q(12_0_3)
  q(12_0_4)
  q(12_0_5)
  q(12_0_6)
  q(12_0_7)
  q(12_1_0)
  q(12_1_1)
  q(12_1_2)
  q(12_1_3)
  q(12_1_4)
  q(12_1_5)
  q(12_1_6)
  q(12_1_7)
  q(13_0_0)
  q(13_0_1)
  q(13_0_2)
  q(13_0_3)
  q(13_0_4)
  q(13_0_5)
  q(13_0_6)
  q(13_0_7)
  q(13_1_0)
  q(13_1_1)
  q(13_1_2)
  q(13_1_3)
  q(13_1_4)
  q(13_1_5)
  q(13_1_6)
  q(13_1_7)
  q(14_0_0)
  q(14_0_1)
  q(14_0_2)
  q(14_0_3)
  q(14_0_4)
  q(14_0_5)
  q(14_0_6)
  q(14_0_7)
  q(14_1_0)
  q(14_1_1)
  q(14_1_2)
  q(14_1_3)
  q(14_1_4)
  q(14_1_5)
  q(14_1_6)
  q(14_1_7)
binary
  x(0_0)
  x(0_1)
  x(0_2)
  x(0_3)
  x(0_4)
  x(0_5)
  x(0_6)
  x(0_7)
  x(1_0)
  x(1_1)
  x(1_2)
  x(1_3)
  x(1_4)
  x(1_5)
  x(1_6)
  x(1_7)
end
